Route 1: 85 63 76 18 89

Route 2: 47 53

Route 3: 21 23 22 19 74

Route 4: 95 71 38 56 54

Route 5: 33 29 27 26 91 96 80

Route 6: 81 2 4 1

Route 7: 65 52 82 57 20 49 24 48 25

Route 8: 36 42 44 41 94 93

Route 9: 11 73 78 13 70

Route 10: 14 88 8 55 68

Route 11: 39 40 37 35 43 100

Route 12: 64 99 59 97 58

Route 13: 98 15 16 9 77

Route 14: 7 45 3 5 46 6

Route 15: 69 90 12 10

Route 16: 72 61 79 60 17

Route 17: 83 62 67 84 51 66

Route 18: 92 28 30 32 31 50 34

Route 19: 75 87 86

Vehicles: 19

Distance: 2368.25

